35 99 48 51 55 67 63 42 53 49 23 92 72 9 6 2 34 14 62 77 21 84 66 97 36 15 33 65 31 58 86 12 80 10 81 75 61 94 1 68 98 41 18 52 74 83 47 37 7 19 85 45 0 60 93 82 27 91 39 44 78 54 43 29 79 95 5 50 64 16 57 76 32 73 71 88 17 56 59 46 30 90 70 22 38 28 3 24 11 69 8 25 13 89 96 87 20 4 26 40